n = 35;
k = 1;
roles = [
{g, f},
{f, d},
{g, m},
{g, d},
{f, d},
{d, m},
{f, g},
{g, f},
{g, d},
{g, d},
{d, f},
{f, g},
{d, f},
{f, g},
{m, f},
{d, m},
{m, f},
{m, d},
{d, g},
{g, f},
{d, f},
{m, g},
{m, d},
{m, f},
{f, d},
{f, m},
{d, f},
{d, g},
{g, m},
{m, d},
{d, m},
{m, g},
{g, f},
{d, g},
{g, m}
];
num_pairs = 2;
player1 = [13, 30];
player2 = [26, 6];
